19 95 
61 45 
25 5 
35 40 
78 34 
13 79 
52 54 
6 82 
45 63 
81 30 
65 77 
46 35 
62 53 
25 17 
49 2 
17 68 
49 30 
13 74 
87 48 
66 18 
34 79 
97 86 
86 55 
20 31 
70 54 
61 35 
31 7 
70 93 
12 48 
63 14 
50 32 
82 99 
14 48 
26 2 
48 92 
72 35 
24 69 
21 10 
76 94 
41 47 
48 2 
82 79 
61 5 
24 73 
53 39 
39 55 
23 22 
54 38 
22 80 
92 22 
